
Gurobi 8.1.1 (mac64, Python) logging started Fri Nov 29 02:28:25 2019


Gurobi 8.1.1 (mac64, Python) logging started Fri Nov 29 02:39:35 2019


Gurobi 8.1.1 (mac64, Python) logging started Fri Nov 29 02:40:05 2019


Gurobi 8.1.1 (mac64, Python) logging started Fri Nov 29 05:21:17 2019


Gurobi 8.1.1 (mac64, Python) logging started Fri Nov 29 17:14:51 2019


Gurobi 8.1.1 (mac64, Python) logging started Fri Nov 29 17:23:43 2019


Gurobi 8.1.1 (mac64, Python) logging started Fri Nov 29 17:23:50 2019


Gurobi 8.1.1 (mac64, Python) logging started Fri Nov 29 17:23:53 2019


Gurobi 8.1.1 (mac64, Python) logging started Fri Nov 29 17:29:10 2019


Gurobi 8.1.1 (mac64, Python) logging started Fri Nov 29 17:29:53 2019


Gurobi 8.1.1 (mac64, Python) logging started Fri Nov 29 17:30:15 2019


Gurobi 8.1.1 (mac64, Python) logging started Fri Nov 29 17:32:59 2019


Gurobi 8.1.1 (mac64, Python) logging started Fri Nov 29 17:36:18 2019


Gurobi 8.1.1 (mac64, Python) logging started Fri Nov 29 17:39:40 2019


Gurobi 8.1.1 (mac64, Python) logging started Fri Nov 29 17:40:01 2019


Gurobi 8.1.1 (mac64, Python) logging started Fri Nov 29 17:40:21 2019


Gurobi 8.1.1 (mac64, Python) logging started Fri Nov 29 17:43:34 2019


Gurobi 8.1.1 (mac64, Python) logging started Fri Nov 29 17:44:13 2019


Gurobi 8.1.1 (mac64, Python) logging started Fri Nov 29 17:50:51 2019


Gurobi 8.1.1 (mac64, Python) logging started Fri Nov 29 17:51:15 2019


Gurobi 8.1.1 (mac64, Python) logging started Fri Nov 29 17:52:59 2019


Gurobi 8.1.1 (mac64, Python) logging started Fri Nov 29 17:53:08 2019


Gurobi 8.1.1 (mac64, Python) logging started Fri Nov 29 17:53:48 2019


Gurobi 8.1.1 (mac64, Python) logging started Fri Nov 29 17:54:28 2019


Gurobi 8.1.1 (mac64, Python) logging started Fri Nov 29 18:00:41 2019


Gurobi 8.1.1 (mac64, Python) logging started Fri Nov 29 18:10:54 2019


Gurobi 8.1.1 (mac64, Python) logging started Fri Nov 29 18:30:54 2019


Gurobi 8.1.1 (mac64, Python) logging started Fri Nov 29 18:31:13 2019


Gurobi 8.1.1 (mac64, Python) logging started Fri Nov 29 18:31:59 2019


Gurobi 8.1.1 (mac64, Python) logging started Fri Nov 29 18:40:16 2019


Gurobi 8.1.1 (mac64, Python) logging started Fri Nov 29 18:52:20 2019


Gurobi 8.1.1 (mac64, Python) logging started Fri Nov 29 18:57:50 2019


Gurobi 8.1.1 (mac64, Python) logging started Fri Nov 29 18:58:47 2019


Gurobi 8.1.1 (mac64, Python) logging started Fri Nov 29 18:59:25 2019


Gurobi 8.1.1 (mac64, Python) logging started Fri Nov 29 19:04:03 2019


Gurobi 8.1.1 (mac64, Python) logging started Fri Nov 29 19:09:22 2019


Gurobi 8.1.1 (mac64, Python) logging started Fri Nov 29 19:16:34 2019


Gurobi 8.1.1 (mac64, Python) logging started Fri Nov 29 19:18:21 2019


Gurobi 8.1.1 (mac64, Python) logging started Fri Nov 29 19:19:20 2019


Gurobi 8.1.1 (mac64, Python) logging started Fri Nov 29 19:20:27 2019


Gurobi 8.1.1 (mac64, Python) logging started Fri Nov 29 19:20:46 2019


Gurobi 8.1.1 (mac64, Python) logging started Fri Nov 29 19:21:08 2019


Gurobi 8.1.1 (mac64, Python) logging started Fri Nov 29 19:30:02 2019


Gurobi 8.1.1 (mac64, Python) logging started Fri Nov 29 19:30:28 2019


Gurobi 8.1.1 (mac64, Python) logging started Fri Nov 29 19:31:07 2019


Gurobi 8.1.1 (mac64, Python) logging started Fri Nov 29 19:32:04 2019


Gurobi 8.1.1 (mac64, Python) logging started Fri Nov 29 19:49:56 2019


Gurobi 8.1.1 (mac64, Python) logging started Fri Nov 29 19:50:37 2019


Gurobi 8.1.1 (mac64, Python) logging started Fri Nov 29 19:50:53 2019


Gurobi 8.1.1 (mac64, Python) logging started Fri Nov 29 20:16:15 2019


Gurobi 8.1.1 (mac64, Python) logging started Fri Nov 29 20:17:27 2019


Gurobi 8.1.1 (mac64, Python) logging started Fri Nov 29 20:18:16 2019


Gurobi 8.1.1 (mac64, Python) logging started Fri Nov 29 20:18:33 2019


Gurobi 8.1.1 (mac64, Python) logging started Fri Nov 29 20:20:35 2019


Gurobi 8.1.1 (mac64, Python) logging started Fri Nov 29 20:21:28 2019


Gurobi 8.1.1 (mac64, Python) logging started Fri Nov 29 20:23:50 2019


Gurobi 8.1.1 (mac64, Python) logging started Fri Nov 29 20:24:03 2019


Gurobi 8.1.1 (mac64, Python) logging started Fri Nov 29 20:24:11 2019


Gurobi 8.1.1 (mac64, Python) logging started Fri Nov 29 20:25:00 2019


Gurobi 8.1.1 (mac64, Python) logging started Fri Nov 29 20:25:11 2019


Gurobi 8.1.1 (mac64, Python) logging started Fri Nov 29 20:25:21 2019


Gurobi 8.1.1 (mac64, Python) logging started Fri Nov 29 20:25:34 2019


Gurobi 8.1.1 (mac64, Python) logging started Fri Nov 29 20:25:42 2019


Gurobi 8.1.1 (mac64, Python) logging started Fri Nov 29 20:26:38 2019


Gurobi 8.1.1 (mac64, Python) logging started Fri Nov 29 20:27:00 2019


Gurobi 8.1.1 (mac64, Python) logging started Fri Nov 29 21:06:58 2019

